\ENCODING=ISO-8859-1
\Problem name: ilog.cplex

Maximize
 obj: 0.05 x1 - 0.05 x2 + 0.15 x3 - 0.15 x4 + 0.4 x5 - 0.4 x6 + 0.1 x7 - 0.1 x8
      + 0.3 x9 - 0.3 x10
Subject To
 c1: - x1 + x2  = -12.7004500625067
 c2: - x3 + x4  = -1.92756664751153
 c3: - x5 + x6  = 21.2914187906021
 c4: - x7 + x8  = 233.915254592852
 c5: - x9 + x10  = 27.3264907062845
End
